1000
[102,104,110,111,117,123,127,128,129,131,132,135,143,149,152,153,159,161,163,165,166,172,173,174,176,182,183,184,185,190,192,195,199,202,205,209,213,215,216,223,226,227,231,233,234,235,237,241,242,243,244,245,246,252,255,257,261,265,268,270,271,272,273,276,278,282,283,289,290,291,294,296,300,301,306,307,309,312,315,321,323,327,328,333,335,337,341,344,347,350,354,356,359,365,366,367,372,373,375,380,381,382,383,387,388,392,394,395,396,400,404,405,408,409,410,414,424,425,428,432,433,434,437,439,440,443,444,446,453,461,464,465,471,473,474,480,485,488,489,490,492,495,500,501,503,506,513,516,517,522,525,527,529,531,532,536,539,543,546,547,549,550,556,557,560,563,564,567,568,571,572,575,579,580,582,585,588,589,590,594,598,601,610,611,614,615,619,620,624,631,633,635,640,641,645,647,652,653,655,661,666,669,671,673,674,679,684,686,693,694,699,700,702,703,705,708,709,710,714,715,720,734,740,741,746,748,749,753,759,763,764,766,767,770,775,777,778,779,783,784,786,788,793,795]
[2,1,1,1,1,1,1,1,1,1,1,3,1,1,1,2,1,1,1,1,3,1,1,1,1,1,1,1,1,1,1,1,1,2,1,2,1,2,1,1,2,1,1,1,1,1,1,1,1,2,1,1,1,1,1,1,1,1,1,3,1,1,1,1,1,1,1,1,1,1,2,3,1,1,1,1,1,1,1,1,1,1,1,1,1,1,2,1,1,1,1,1,1,2,1,2,1,2,1,1,1,1,1,1,2,1,2,1,1,2,1,1,1,2,1,2,1,1,1,1,1,1,1,1,1,1,1,1,1,1,2,1,1,1,1,1,1,1,2,1,1,1,2,1,1,1,2,1,1,1,3,1,2,2,1,3,2,1,1,1,2,1,1,1,1,1,1,1,1,1,1,1,1,1,1,1,2,1,1,1,1,1,1,1,1,1,1,1,1,2,1,1,1,2,1,1,1,2,1,2,1,1,1,2,1,2,1,2,2,2,1,1,1,2,3,2,1,1,2,1,2,1,1,1,1,1,1,1,1,2,2,1,1,1,1,1,1,2,1,1,1,1,1,1]
